NAME          sc.mps
ROWS
 N  obj     
 E  c1      
COLUMNS
    x1        obj                 -1   c1                  1
RHS
    rhs       c1                  0.5
BOUNDS
 SC BOUND     x1                  40
ENDATA
